NAME: Route
NUMBER_OF_STORES: 4
NUMBER_OF_ORDERS: 3
NUMBER_OF_VEHICLES: 1
NUMBER_OF_DEPOT: 1
NODE_COORD_SECTION
57299215606db5a50e041ddf 21.015555 105.85152399999993 57299215606db5a50e041ddf
57380cddc433feda46364e37 20.992385 105.85250100000007 O-1492Q81
5738faa1c511800c25cae80e 21.029725 105.84618 O-X8FM43D
57393f79299729eb4c454dfa 21.032822 105.80200500000001 O-GECFT8F
DEMAND_SECTION
57380cddc433feda46364e37 57380cddc433feda46364e37 -10 -10 45840 49440 300 0
5738faa1c511800c25cae80e 5738faa1c511800c25cae80e -10 -10 20280 45480 300 0
57393f79299729eb4c454dfa 57393f79299729eb4c454dfa -10 -10 39600 43200 300 0
DEPOT_SECTION
DEPORT_1 57299215606db5a50e041ddf 28800 79200
VEHICLES_SECTION
BIKE: 1
TRUCK: 0
57299233606db5a50e041de0 DEPORT_1 1000 100 35 25 200000 300 28800 79200 43200 46800
EOF